/*********************************************
 * ナップサック問題のデータファイル
 * 
 * 例題：5つのアイテムから選択
 *********************************************/

// アイテムの数
n = 5;

// ナップサックの容量
capacity = 15;

// 各アイテムの価値
value = [
  10,  // アイテム1
  40,  // アイテム2
  30,  // アイテム3
  50,  // アイテム4
  35   // アイテム5
];

// 各アイテムの重さ
weight = [
  5,   // アイテム1
  4,   // アイテム2
  6,   // アイテム3
  3,   // アイテム4
  7    // アイテム5
];